13
Properties=species:S:1:pos:R:3 name=C583788_wB97M-D3BJ/def2-TZVPP pbc="F F F"
C        6.32807892       1.84195079      -0.66525984
C        6.85857840       0.60146884      -0.33414944
C        4.95687309       2.00357303      -0.71090141
C        4.08833820       0.95893178      -0.43419870
Cl       4.30831824       3.55948503      -1.12808232
C        4.61907279      -0.27595785      -0.10451796
C        5.98975826      -0.45133444      -0.05557075
Cl       6.66875186      -2.00020202       0.35879728
O        8.20247808       0.47121613      -0.29746038
H        6.99643389       2.65986993      -0.88218989
H        3.02204147       1.11068449      -0.47587741
H        3.97093991      -1.10992212       0.11669197
H        8.41923689      -0.43626369      -0.05738116
24
Properties=species:S:1:pos:R:3 name=C7493632_wB97M-D3BJ/def2-TZVPP pbc="F F F"
C        5.98654897       0.97182729      -1.12164001
C        5.81887929      -0.21410788      -0.39671864
C        5.33988551       2.13378827      -0.76856972
C        4.95829118      -0.22839102       0.72149913
C        6.55565195      -1.43236948      -0.78639718
C        4.30968225       0.96954651       1.07080312
N        4.70549465      -1.36012090       1.44198441
C        4.49762936       2.12024719       0.34350010
C        9.42128652      -2.29852760      -1.72723536
C        8.06147035      -2.38917053      -2.34352073
C        9.93305671      -3.24244077      -0.95581590
O        7.24038193      -1.27866583      -1.93579149
O        6.56418442      -2.47592270      -0.16661779
H        6.64821778       0.95880389      -1.97263898
H        5.48485285       3.03789511      -1.33942722
H        3.64904352       0.96850276       1.92723270
H        4.26907595      -1.25241025       2.33705188
H        7.57521820      -3.32327992      -2.07927599
H        3.98304996       3.02298682       0.64168602
H        9.98681988      -1.40113469      -1.94846842
H        8.11586608      -2.29823772      -3.42568922
H        5.31521979      -2.14611200       1.29592384
H       10.92670381      -3.15588067      -0.54048742
H        9.36578908      -4.13012576      -0.71068723
19
Properties=species:S:1:pos:R:3 name=C33903503_wB97M-D3BJ/def2-TZVPP pbc="F F F"
C        6.45041106       1.80753258      -0.40332394
C        6.94881184       0.55720998      -0.07333454
C        5.09684463       1.96591627      -0.66971898
C        6.08254208      -0.52555344      -0.01884045
C        4.72869635      -0.37725829      -0.27965751
S        6.73409366      -2.13755254       0.39810376
C        4.23733492       0.87846975      -0.60445379
O        5.58170327      -2.95462337       0.71889633
N        7.95641920      -2.03586329       1.29037900
C        7.41748365      -2.68097942      -1.13871089
H        7.11459881       2.65822997      -0.44557307
H        7.99415922       0.41170712       0.15737251
H        4.70966334       2.94233248      -0.92298940
H        4.08012788      -1.23699529      -0.21051183
H        3.18355170       1.00828954      -0.80274789
H        7.70861367      -1.70113875       2.21519100
H        6.61073528      -2.74326364      -1.86147826
H        8.18441919      -1.98374832      -1.45635237
H        7.84559036      -3.66051156      -0.94814989
9
Properties=species:S:1:pos:R:3 name=C2417905_wB97M-D3BJ/def2-TZVPP pbc="F F F"
C       52.00253954       9.98972643       0.00010477
C       50.68803843       9.21842244      -0.00016954
C       50.94426416       7.77645365      -0.00007462
Br      51.66012414      11.89879866      -0.00002530
N       51.17657890       6.65327901       0.00018316
H       52.58859192       9.77475015       0.88516906
H       52.58898884       9.77470370      -0.88468492
H       50.09827974       9.47152531      -0.87862899
H       50.09789442       9.47154064       0.87802629
31
Properties=species:S:1:pos:R:3 name=C79099073_wB97M-D3BJ/def2-TZVPP pbc="F F F"
C        0.43622100       0.61139739       0.26530495
N       -0.85564604       0.71096031       0.71325264
O        0.47403205       0.24577791      -1.02682833
O        1.40476751       0.84498140       0.95559479
C        2.62791754      -0.91706496      -1.11504228
C        1.75134231       0.15971008      -1.73710536
C        1.32477671      -0.24532142      -3.13902362
C        2.43394518       1.51930687      -1.76252113
C       -1.06230668       0.83097881       2.14644037
C       -1.27121901      -0.55134649       2.77836140
C       -1.97690598       0.10415609       0.01494634
C       -2.22598933      -1.31787022       0.53381031
C       -2.34469801      -1.32638122       2.04452245
O       -3.23971614      -1.89836488       2.61760208
H        3.50538266      -1.06714789      -1.74194351
H        2.95002496      -0.63497028      -0.11899494
H        2.08365201      -1.85887313      -1.06290357
H        2.20023440      -0.32906958      -3.77946553
H        0.65408996       0.49942083      -3.56253568
H        0.81380959      -1.20599229      -3.12093514
H        1.75716543       2.27007291      -2.16723305
H        2.74911200       1.82022063      -0.76963088
H        3.30826280       1.46532175      -2.40903515
H       -0.20382082       1.32745789       2.58185738
H       -1.94262220       1.45333378       2.30895945
H       -0.33460861      -1.10728720       2.69760104
H       -1.54374062      -0.48136898       3.82800411
H       -1.78715290       0.10089932      -1.05009755
H       -2.85650981       0.72236000       0.19817339
H       -3.12664301      -1.75297128       0.10852770
H       -1.37195676      -1.94022587       0.25703724
23
Properties=species:S:1:pos:R:3 name=C818724_wB97M-D3BJ/def2-TZVPP pbc="F F F"
C       -0.05808349       1.57736650       0.01725629
C        1.26965408       0.83062145       0.00453818
C        2.47080919       1.76694779       0.01502100
C        3.80374573       1.03001453       0.00164538
C        6.34430089       1.26214532       0.04749795
C        4.99483137       1.97736951       0.02197459
C        6.54955328       0.45461768      -1.16607679
O        7.41997639       2.16999052       0.24614574
C        6.71461923      -0.16455791      -2.17795689
H       -0.90397534       0.89202720       0.01187347
H       -0.14247524       2.20494492       0.90455712
H       -0.14774775       2.22547528      -0.85461520
H        1.32388744       0.18887337      -0.87731443
H        1.32670823       0.16583615       0.86913080
H        2.41935521       2.41032092       0.89733850
H        2.41735796       2.43236270      -0.85068781
H        3.85913985       0.39264956      -0.88230314
H        3.85650089       0.36399568       0.86702441
H        6.37332819       0.59654866       0.91036715
H        4.95684893       2.61331928       0.90673139
H        4.96495334       2.63349275      -0.85108945
H        7.52171738       2.68714756      -0.55613814
H        6.86939425      -0.72530920      -3.06602002
