13
Properties=species:S:1:pos:R:3 name=C583788_MACE-OFF23-Large pbc="F F F"
C        6.32799177       1.84204650      -0.66571309
C        6.85811293       0.60119592      -0.33425265
C        4.95706510       2.00374281      -0.71119431
C        4.08807726       0.95897077      -0.43415195
Cl       4.30737006       3.56038596      -1.12771277
C        4.61893865      -0.27578775      -0.10419715
C        5.98986445      -0.45142662      -0.05517688
Cl       6.66786667      -2.00106985       0.35866078
O        8.20291875       0.47087593      -0.29755824
H        6.99653219       2.65989681      -0.88234231
H        3.02166578       1.11079589      -0.47636880
H        3.97091324      -1.11011070       0.11682255
H        8.42158318      -0.43601577      -0.05691517
24
Properties=species:S:1:pos:R:3 name=C7493632_MACE-OFF23-Large pbc="F F F"
C        5.97079576       0.97501454      -1.14009607
C        5.82659835      -0.21105739      -0.41000738
C        5.31568200       2.12997048      -0.78010439
C        4.98699503      -0.23159757       0.72336512
C        6.56776638      -1.42219191      -0.81090953
C        4.32725258       0.95871689       1.07761660
N        4.76797217      -1.36223564       1.45680132
C        4.48920885       2.10912694       0.34394679
C        9.41126669      -2.30444868      -1.70892857
C        8.07173925      -2.36966468      -2.37110957
C        9.86945622      -3.25073105      -0.90739458
O        7.24340967      -1.26232804      -1.96478332
O        6.58724176      -2.46838644      -0.19546733
H        6.61946480       0.96688909      -2.00123479
H        5.44094330       3.03443585      -1.35484427
H        3.67885315       0.95299613       1.94345656
H        4.34452855      -1.26190552       2.35873602
H        7.57042452      -3.30533144      -2.14221525
H        3.96614253       3.00563739       0.64611916
H       10.00466436      -1.42213781      -1.91722531
H        8.16074085      -2.25403319      -3.44833458
H        5.37448829      -2.14690866       1.29116465
H       10.84703085      -3.18251200      -0.45187501
H        9.26963412      -4.12061721      -0.67597636
19
Properties=species:S:1:pos:R:3 name=C33903503_MACE-OFF23-Large pbc="F F F"
C        6.45553742       1.79628793      -0.43732991
C        6.94778568       0.54466539      -0.10546231
C        5.09703661       1.96689475      -0.66989058
C        6.07066812      -0.52810357      -0.02028256
C        4.71202323      -0.36982156      -0.24678361
S        6.71819993      -2.14447203       0.38026204
C        4.22807602       0.88895856      -0.57122644
O        5.56938223      -2.97655371       0.67660102
N        7.91505419      -2.03382146       1.31181250
C        7.44986477      -2.67082503      -1.14369070
H        7.12778535       2.63924553      -0.50393044
H        7.99680719       0.39317604       0.10331362
H        4.71411012       2.94477133      -0.92353805
H        4.05559059      -1.22176789      -0.15308553
H        3.17079224       1.02727960      -0.74387001
H        7.65977998      -1.72458894       2.24285800
H        6.67618962      -2.72520456      -1.90306266
H        8.22894616      -1.96362997      -1.40576045
H        7.87217065      -3.65029062      -0.94283414
9
Properties=species:S:1:pos:R:3 name=C2417905_MACE-OFF23-Large pbc="F F F"
C       52.00164992       9.98972196       0.00011016
C       50.68672670       9.21829237      -0.00014419
C       50.94607714       7.77778645       0.00000590
Br      51.66261859      11.89911465      -0.00002828
N       51.17799860       6.65465722       0.00008249
H       52.58779594       9.77382305       0.88485994
H       52.58817494       9.77376175      -0.88437265
H       50.09733774       9.47094295      -0.87870115
H       50.09692053       9.47109959       0.87808768
31
Properties=species:S:1:pos:R:3 name=C79099073_MACE-OFF23-Large pbc="F F F"
C        0.42708067       0.64335476       0.26654145
N       -0.86379921       0.73522781       0.71571858
O        0.46485877       0.27665126      -1.02471407
O        1.39518049       0.88525566       0.95461246
C        2.60416050      -0.91405931      -1.08748053
C        1.74398925       0.16350415      -1.72953391
C        1.31571194      -0.26093545      -3.12475686
C        2.44117452       1.51412548      -1.77301650
C       -1.06583572       0.83015383       2.15166600
C       -1.25158364      -0.56418656       2.76054655
C       -1.98063165       0.12272423       0.01429880
C       -2.21406648      -1.30706990       0.51396667
C       -2.31863270      -1.34498119       2.02485205
O       -3.19258840      -1.94988508       2.59707952
H        3.48049411      -1.08666550      -1.71012854
H        2.92976422      -0.62010164      -0.09627082
H        2.04594830      -1.84672100      -1.02135565
H        2.19246605      -0.38503013      -3.75696821
H        0.66880177       0.49166418      -3.57079837
H        0.77808352      -1.20637323      -3.08729119
H        1.77178620       2.26725495      -2.18518899
H        2.76411974       1.82299777      -0.78532744
H        3.31284541       1.44209935      -2.42142415
H       -0.21203254       1.32974728       2.59238224
H       -1.95424659       1.43757563       2.32716834
H       -0.30917653      -1.10804286       2.65940397
H       -1.51123040      -0.51640906       3.81458497
H       -1.79548408       0.13382752      -1.05158498
H       -2.86517206       0.72999030       0.21026175
H       -3.11310734      -1.74323350       0.08666232
H       -1.35767792      -1.92035942       0.22279444
23
Properties=species:S:1:pos:R:3 name=C818724_MACE-OFF23-Large pbc="F F F"
C       -0.05696126       1.57075565       0.01337340
C        1.27316456       0.82832877       0.00148635
C        2.47073478       1.76937512       0.01363405
C        3.80518934       1.03573728       0.00830150
C        6.34286887       1.26451909       0.04968350
C        4.99532759       1.98447035       0.02672701
C        6.54077376       0.45961897      -1.16564276
O        7.42434001       2.16802008       0.24880654
C        6.69765262      -0.15868708      -2.17936664
H       -0.90061095       0.88258221       0.00431351
H       -0.14502962       2.19585965       0.90212203
H       -0.14689329       2.22090552      -0.85700513
H        1.33004749       0.18780745      -0.88120695
H        1.33175917       0.16354903       0.86603136
H        2.41363592       2.41511557       0.89401352
H        2.41836630       2.43207064      -0.85446834
H        3.86446943       0.39284590      -0.87153879
H        3.85799057       0.37499259       0.87781560
H        6.37085628       0.59665166       0.91080761
H        4.95744356       2.62067060       0.91137524
H        4.96395692       2.63880820      -0.84754206
H        7.55242804       2.66182135      -0.56422011
H        6.84288990      -0.71961842      -3.06860034
