#===============================================================================
# Created using the Atomic Simulation Environment (ASE)

# Mon Aug  4 10:09:39 2025

#=======================================================
lattice_vector 11.4160000000000004 0.0000000000000000 0.0000000000000000 
lattice_vector 0.0000000000000000 6.5979999999999999 0.0000000000000000 
lattice_vector -1.1205000000000001 0.0000000000000000 11.4282000000000004 
atom 3.0567972749223955 1.5814556456576092 11.2870613341066726 H
atom 7.1247970431701244 4.9321187786128631 0.0383370133176974 H
atom 6.5631757628821665 4.8813944075826150 5.7504422019152379 H
atom 3.6184184707640572 1.6321800915867535 5.5749556623585459 H
atom 3.1895482169657519 0.2732502403969662 1.7140704009777135 H
atom 6.9920469034219357 6.2403242340286784 9.6113276898065543 H
atom 7.5510677476882995 3.5727130697353959 3.8956850269827918 H
atom 2.6305270505380376 2.9408620595330581 7.4297123827004965 H
atom 1.2233381728627539 1.1718745643450359 2.9397801757036452 H
atom 8.9582566302957041 5.3416994699308429 8.3856170629244353 H
atom 9.5189341195743733 4.4699113551463663 2.6715617048798186 H
atom 0.6626605450904319 2.0436635518929260 8.6538354714471843 H
atom 0.2486443254493343 3.3256176776827027 2.2573989128277505 H
atom 9.9329493411264753 3.1879559662267654 9.0679983557669370 H
atom 10.4944369198376464 0.0249855475058865 3.3544595858468429 H
atom -0.3128428238322187 6.4885887799273574 7.9709384475128928 H
atom 4.2838427580585696 6.2848329189551704 9.7009099311365805 H
atom 5.8977516829012071 0.2287410429706271 1.6244876241017594 H
atom 5.3391142574301469 2.9883121555646337 7.3357021385169130 H
atom 4.8424808067275622 3.5252621269683386 3.9896957915300999 H
atom 2.7747335042884673 5.8504246575738339 8.8471216896210620 H
atom 7.4068608158141362 0.6631492164822885 2.4782759818838263 H
atom 6.8463765423098417 2.5506181522895335 8.1911312258655276 H
atom 3.3352173935486009 3.9629557591858537 3.1342667418895718 H
atom 4.1353619398685799 4.7453807874401619 8.8169186718402450 H
atom 6.0462320558947695 1.7681932006410366 2.5084788494855692 H
atom 5.4831875225572198 1.4483038724514783 8.2192518593353707 H
atom 4.6984064889348174 5.0652709434052294 3.1061455070917607 H
atom -0.2591658199653732 6.4286377325803583 10.6099699801776435 H
atom 10.4407606459735689 0.0849365486562281 0.7154280196454820 H
atom 9.8796753291814632 3.1300494687859097 6.4283426175506007 H
atom 0.3019187071789028 3.3835252169193546 4.8970551566813549 H
atom 1.6492903843175222 3.6794585901080104 0.6914777644814916 C
atom 8.5323037799140842 2.8341147596633998 10.6339202432573927 C
atom 9.0927302679761901 0.3800939584099048 4.9192549478819672 C
atom 1.0888641337978169 6.1334802645319764 6.4061438726960276 C
atom 2.7727921284574100 3.1676993908852458 0.0367631437662409 C
atom 7.4088016782622814 3.3458747701291500 11.2886340446929836 C
atom 7.9685915909455192 6.4668990351247224 5.5733355518724155 C
atom 2.2130019916264256 0.0466749987098958 5.7520617563140650 C
atom 3.3155238527894779 1.9485093182613216 0.3965930157841686 C
atom 6.8660715660845621 4.5650641260802418 10.9288041787632970 C
atom 7.4253675734016547 5.2480411433426317 5.2131247950828890 C
atom 2.7562277883857726 1.2655333483802564 6.1122726448474491 C
atom 2.7596510108889682 1.2254270958958753 1.4408003560085536 C
atom 7.4219440913812083 5.2881465195884738 9.8845981965377554 C
atom 7.9814782386936836 4.5245509671948225 4.1693318914755571 C
atom 2.2001162111027197 1.9890246557684559 7.1560652629216026 C
atom 1.6570366435545794 1.7219937805629368 2.1195552685949557 C
atom 8.5245574532733013 4.7915803943592499 9.2058421863487556 C
atom 9.0849496291793006 5.0203599026697487 3.4914238588409354 C
atom 1.0966452530042858 1.4932141095977858 7.8339738274699267 C
atom 1.1091903053771479 2.9337310952843243 1.7403882225083307 C
atom 9.0724044431142268 3.5798423483573085 9.5850081404623175 C
atom 9.6332407861226059 6.2318058248365293 3.8709234895713074 C
atom 0.5483538665839983 0.2817694286449051 7.4544730797753731 C
atom 0.9558644078151641 4.9568437705877821 0.3557607688248389 C
atom 9.2257305925771345 1.5567301185733935 10.9696365228281660 C
atom 9.7863253383631701 1.6574412214850953 5.2550837295753414 C
atom 0.3952692995786591 4.8561339671194457 6.0703123481117478 C
atom 3.1064422548488997 4.8295575644075805 10.6744975802079338 C
atom 7.0751517305013483 1.6840161853385966 0.6508996518020914 C
atom 6.5144033790674873 1.5308960559317237 6.3629997587739320 C
atom 3.6671914521339883 4.9826784576372969 4.9623991193176753 C
atom 3.6138677008549407 5.4767801762996022 9.4300092894739542 C
atom 6.5677265878233877 1.0367937919511059 1.8953884189472143 C
atom 6.0071330094723043 2.1788610668367476 7.6071658423781034 C
atom 4.1744615691678746 4.3347130686845778 3.7182316129264588 C
atom 0.2986133128984365 5.6167646504010955 10.7463120487690151 O
atom 9.8829809432423037 0.8968093262067011 0.5790855124364704 O
atom 9.3221661342777029 2.3180169793568326 6.2919383142739465 O
atom 0.8594284581815496 4.1955575051617044 5.0334596526493405 O
atom 0.0002918741477043 5.3455245719834181 1.0128894507340711 O
atom 10.1813028696218772 1.1680497022825720 10.3125086753378348 O
atom 10.7425256261455395 2.0457322154348456 4.5986634135985209 O
atom -0.5609314703350549 4.4678430965065763 6.7267353387799602 O
atom 2.2397699448410475 3.8233269519284403 10.3888908062936327 O
atom 7.9418242980661446 2.6902464258280911 0.9365066769250322 O
atom 7.3809887702502248 0.5248296757433281 6.6491542589800927 O
atom 2.8006057988154511 5.9887451065661672 4.6762434339894039 O
atom 4.5306588210495375 5.1148678811265054 0.3751706541630230 O
atom 5.6509351317873175 1.3987064885665528 10.9502268966808405 O
atom 6.2106452469194551 1.8155252457386004 5.2339371265540180 O
atom 3.9709491781922579 4.6980493752672086 6.0914600012845002 O
