# 
# This is the geometry file that corresponds to the current relaxation step.
# If you do not want this file to be written, set the "write_restart_geometry" flag to .false.
#  aims_uuid : B6812BEC-2496-450A-A610-99C53C4145B8                                
# 
lattice_vector     11.41600000      0.00000000      0.00000000
lattice_vector      0.00000000      6.59800000      0.00000000
lattice_vector     -1.12050000      0.00000000     11.42820000
atom       3.07185118      1.62039839     11.31681244 H
atom       7.10974301      4.89317587      0.00858578 H
atom       6.54955467      4.91914398      5.72304082 H
atom       3.63204123      1.59442981      5.60235774 H
atom       3.21304063      0.29228860      1.76155407 H
atom       6.96855370      6.22128612      9.56384487 H
atom       7.52891941      3.59097577      3.85016169 H
atom       2.65267597      2.92259850      7.47523620 H
atom       1.21429141      1.17698231      2.99423084 H
atom       8.96730279      5.33659238      8.33116740 H
atom       9.52758574      4.47564615      2.61743963 H
atom       0.65400846      2.03792901      8.70795711 H
atom       0.19865136      3.32716519      2.29170314 H
atom       9.98294203      3.18640886      9.03369405 H
atom      10.54318952      0.02792351      3.31980569 H
atom      -0.36159549      6.48565189      8.00559084 H
atom       4.30355168      6.31641393      9.70789744 H
atom       5.87804107      0.19716092      1.61750048 H
atom       5.31766564      3.01739082      7.33152462 H
atom       4.86392896      3.49618219      3.99387451 H
atom       2.67641587      6.07488583      8.98804850 H
atom       7.50517692      0.43868786      2.33734980 H
atom       6.94440703      2.77512516      8.05205645 H
atom       3.23718927      3.73845165      3.27333992 H
atom       3.92381680      4.86058944      8.71044664 H
atom       6.25777718      1.65298593      2.61495022 H
atom       5.69644646      1.56119276      8.32873263 H
atom       4.48515275      4.95238186      2.99666731 H
atom      -0.31333771      6.49678808     10.63594714 H
atom      10.49493006      0.01678450      0.68944853 H
atom       9.93459335      3.19766113      6.40360340 H
atom       0.24700152      3.31591362      4.92179394 H
atom       1.61175418      3.70556994      0.71979747 C
atom       8.56983917      2.80800382     10.60559951 C
atom       9.12999128      0.40645782      4.89162173 C
atom       1.05160362      6.10711677      6.43377578 C
atom       2.75317618      3.19967131      0.06062065 C
atom       7.42841734      3.31390240     11.26477662 C
atom       7.98858335      6.49853845      5.55083520 C
atom       2.19301197      0.01503578      5.77456277 C
atom       3.31684733      1.98085612      0.43081685 C
atom       6.86474655      4.53271794     10.89458105 C
atom       7.42501030      5.27964391      5.18077689 C
atom       2.75658516      1.23393022      6.14462121 C
atom       2.76597335      1.24715406      1.48247434 C
atom       7.41562077      5.26642037      9.84292393 C
atom       7.97593420      4.54588689      4.12917598 C
atom       2.20566101      1.96768749      7.19622180 C
atom       1.64643339      1.73335994      2.16296533 C
atom       8.53516067      4.78021463      9.16243278 C
atom       9.09544002      5.03210531      3.44865181 C
atom       1.08615455      1.48146960      7.87674530 C
atom       1.07808397      2.94304189      1.77657026 C
atom       9.10350954      3.57053221      9.54882710 C
atom       9.66370820      6.24187185      3.83491131 C
atom       0.51788617      0.27170322      7.49048558 C
atom       0.90780464      4.97329036      0.38224033 C
atom       9.27378952      1.54028402     10.94315717 C
atom       9.83397080      1.67417817      5.22915202 C
atom       0.34762413      4.83939643      6.09624549 C
atom       3.08702641      4.88734587     10.69555276 C
atom       7.09457053      1.62622491      0.62984420 C
atom       6.53406190      1.58810713      6.34403573 C
atom       3.64753497      4.92546821      4.98136257 C
atom       3.54053231      5.57525030      9.45012821 C
atom       6.64106120      0.93832399      1.87526938 C
atom       6.08034571      2.27592136      7.58942461 C
atom       4.10125071      4.23765326      3.73597388 C
atom       0.26601025      5.65946616     10.78906262 O
atom       9.91558245      0.85410677      0.53633344 O
atom       9.35524079      2.36039041      6.25052627 O
atom       0.82635408      4.15318429      5.07487112 O
atom      -0.08442117      5.34076733      1.04155335 O
atom      10.26601325      1.17280521     10.28384196 O
atom      10.82621812      2.04162643      4.56988437 O
atom      -0.64462346      4.47194835      6.75551286 O
atom       2.21366887      3.85804514     10.40035009 O
atom       7.96792497      2.65552820      0.92504715 O
atom       7.40758355      0.55895281      6.63928810 O
atom       2.77401213      5.95462140      4.68611005 O
atom       4.52738143      5.16181121      0.40867008 O
atom       5.65420984      1.35176440     10.91672837 O
atom       6.21418340      1.86247040      5.20269605 O
atom       3.96741121      4.65110322      6.12270253 O