# 
# This is the geometry file that corresponds to the current relaxation step.
# If you do not want this file to be written, set the "write_restart_geometry" flag to .false.
#  aims_uuid : 591144A8-D153-40A7-A0D8-3D5DB5F72CBD                                
# 
lattice_vector     12.35780000      0.00000000      0.00000000
lattice_vector      0.00000000      6.53150000      0.00000000
lattice_vector     -4.38760000      0.00000000     10.62620000
atom       4.53347527     -0.02956087      6.37607295 H
atom       3.67972605      6.40399753      4.27292486 H
atom       1.48609485      3.23621705      9.58596098 H
atom       6.72710592      3.13822084      1.06303777 H
atom       7.88732434      4.80375394      7.35355979 H
atom       0.32587644      1.57068329      3.29543820 H
atom      -1.86759509      1.53805477      8.60802957 H
atom      10.08079343      4.83637967      2.04096625 H
atom       7.90607366      6.14600723      5.24614184 H
atom       0.30712735      0.22842964      5.40285611 H
atom       2.50101740      2.88032143      0.08920382 H
atom       5.71219240      3.49412227     10.55979744 H
atom       6.69655338      5.28252821      3.22068073 H
atom       1.51664785      1.09190847      7.42831707 H
atom       3.71013071      2.01677029      2.11489367 H
atom       4.50306649      4.35766515      8.53410456 H
atom       5.44763014      3.14526112      3.36274063 H
atom       2.76557089      3.22917557      7.28625744 H
atom       4.95902349     -0.12053293      1.97302999 H
atom       3.25417613      6.49497005      8.67596805 H
atom       8.24410160      0.17030398      9.37998845 H
atom      -0.03090095      6.20413258      1.26900956 H
atom      -2.22445264      3.43577281      6.58211321 H
atom      10.43765315      2.93866463      4.06688558 H
atom       6.46837230      0.30318044      9.16131594 H
atom       1.74482819      6.07125655      1.48768273 H
atom      -0.44872729      3.56871556      6.80079320 H
atom       8.66192809      2.80571944      3.84820430 H
atom       7.32301661      1.56953604     10.04416653 H
atom       0.89018501      4.80490043      0.60483203 H
atom      -1.30337303      4.83490010      5.91771293 H
atom       9.51657510      1.53953628      4.73128521 H
atom       5.96858592      2.75146718      5.40889858 C
atom       2.24461517      3.62296967      5.24009944 C
atom       0.05082279      6.01722049     10.55296839 C
atom       8.16237872      0.35721757      0.09602917 C
atom       6.67950699      3.24523683      6.52371028 C
atom       1.53369397      3.12920005      4.12528785 C
atom      -0.65994231     -0.02050143      9.43806091 C
atom       8.87314261      6.39493771      1.21093709 C
atom       7.35913044      4.45917160      6.46405114 C
atom       0.85407035      1.91526539      4.18494691 C
atom      -1.33951055      1.19347045      9.49760281 C
atom       9.55270756      5.18096484      1.15139414 C
atom       7.36808005      5.19777572      5.28003218 C
atom       0.84512096      1.17666114      5.36896577 C
atom       3.03899968      1.93207876      0.05542021 C
atom       5.17420306      4.44236108     10.59357621 C
atom       6.68770660      4.72235484      4.15531479 C
atom       1.52549431      1.65208209      6.49368320 C
atom       3.71914605      1.45661503      1.18025327 C
atom       4.49405085      4.91781975      9.46874540 C
atom       5.99240383      3.51917417      4.22865014 C
atom       2.22079725      2.85526265      6.42034788 C
atom       4.41441723      0.25340826      1.10702761 C
atom       3.79878151      6.12102827      9.54197075 C
atom       5.17481264      1.49283486      5.38141499 C
atom       3.03838726      4.88160270      5.26758333 C
atom       0.84463809      4.75861514     10.58052110 C
atom       7.36855860      1.61582023      0.06847852 C
atom       7.61349644      1.56921079      7.90794940 C
atom       0.59970447      4.80522630      2.74104913 C
atom      -1.59390443      4.83491085      8.05393552 C
atom       9.80710967      1.53952307      2.59506416 C
atom       7.41448520      0.86320627      9.20864510 C
atom       0.79871547      5.51123041      1.44035321 C
atom      -1.39484958      4.12871292      6.75335352 C
atom       9.60805115      2.24572343      3.89564457 C
atom       5.12629336      0.80325331      6.50569179 O
atom       3.08690810      5.57118327      4.14330604 O
atom       0.89330636      4.06904414      9.45625220 O
atom       7.31989310      2.30539250      1.19274655 O
atom       4.58985491      1.13651546      4.33949777 O
atom       3.62334640      5.23792123      6.30950009 O
atom       5.81712417      4.40231764      0.99628053 O
atom       2.39607892      1.97212149      9.65271711 O
atom       6.68367576      2.57772331      7.75229660 O
atom       1.52952502      3.79671374      2.89670166 O
atom      -0.66406162      5.84340823      8.20951778 O
atom       8.87726460      0.53102825      2.43948042 O
atom       8.45503804      1.31627306      7.06551174 O
atom      -0.24183763      5.05816351      3.58348644 O
atom      -2.43550125      4.58210391      8.89635997 O
atom      10.64870342      1.79233429      1.75263795 O